p cnf 150 210
-106 10 140 0
-48 30 25 0
71 -52 -89 0
70 22 138 0
6 125 38 0
140 65 116 0
3 121 55 0
54 -126 137 0
-15 71 61 0
102 -48 68 0
-59 129 -58 0
56 -104 33 0
21 36 -2 0
-141 -80 -85 0
-100 -41 -86 0
-1 12 -126 0
59 -35 52 0
92 -12 -98 0
58 139 -35 0
36 -22 108 0
125 69 -31 0
27 24 -21 0
119 -127 -135 0
31 122 115 0
50 66 95 0
-5 -62 -87 0
125 -128 -108 0
-20 -117 82 0
81 3 33 0
81 135 95 0
82 128 -59 0
73 68 -54 0
-59 5 -19 0
-85 -12 -144 0
47 38 126 0
97 78 3 0
-6 -50 115 0
-124 5 21 0
-52 -92 135 0
-37 -59 52 0
-55 -124 92 0
-49 -133 80 0
95 90 -111 0
129 -22 81 0
-76 -135 99 0
-2 -52 -130 0
-73 117 -94 0
21 57 -10 0
18 -61 81 0
149 24 -21 0
-98 13 140 0
-111 -34 141 0
-98 -88 148 0
-25 114 -22 0
34 -10 -102 0
-43 50 -26 0
-87 -144 30 0
110 33 75 0
125 47 -39 0
93 -45 -106 0
-111 -100 -20 0
66 142 82 0
-9 -6 66 0
43 -126 -41 0
-143 -123 45 0
-86 16 -6 0
-12 -143 134 0
-85 -28 61 0
-21 -117 -25 0
-122 -101 99 0
138 105 -88 0
4 148 76 0
58 30 -59 0
-96 98 109 0
-96 -113 -142 0
144 112 -39 0
-63 -20 1 0
6 -47 -133 0
98 73 110 0
99 54 94 0
96 -39 -9 0
-65 25 51 0
146 -105 -50 0
4 -2 -24 0
-109 91 35 0
114 94 -117 0
67 -83 -36 0
15 125 31 0
-47 62 -117 0
96 67 -102 0
-78 27 -29 0
-56 23 -52 0
149 -49 125 0
50 -133 52 0
46 -2 133 0
-7 -127 -59 0
93 146 71 0
-68 143 -104 0
-134 -110 -31 0
-105 35 -10 0
-63 5 25 0
150 -14 104 0
-103 -124 86 0
-133 -62 9 0
70 -74 75 0
-143 41 -30 0
-65 -59 133 0
66 18 104 0
-101 -45 146 0
-26 2 -112 0
52 150 18 0
108 142 53 0
-20 -59 -120 0
-126 74 106 0
135 113 51 0
-140 28 -33 0
-128 27 29 0
52 -124 125 0
-79 119 39 0
-135 -102 16 0
-54 74 -135 0
-142 43 -70 0
-123 -63 146 0
-23 -147 55 0
86 -126 -16 0
-64 111 140 0
117 -5 128 0
-69 -117 13 0
90 74 -16 0
38 -86 -137 0
-43 -30 133 0
-12 144 -147 0
-36 108 25 0
71 -107 68 0
-48 149 22 0
-104 17 46 0
150 -29 -31 0
-70 -34 -29 0
-149 48 -99 0
-81 71 -45 0
55 -10 -134 0
131 -87 97 0
-76 19 -150 0
-108 149 -85 0
-35 -43 -109 0
-91 122 47 0
-136 -14 -143 0
48 -75 27 0
130 -136 110 0
2 4 145 0
x -2 4 9 10 -13 18 19 20 22 23 29 30 -31 -32 34 -39 40 41 -42 46 48 51 -53 -56 -58 -65 -66 -68 72 -75 76 -78 79 80 -84 86 89 90 -92 93 98 99 -101 102 -105 106 107 -112 -113 -115 117 119 120 124 125 126 -128 -129 132 -133 -136 -137 -138 -141 -142 143 145 146 -150 0
x 1 3 4 5 6 -7 11 12 -14 16 18 -19 -22 -25 29 -32 35 -36 38 -39 40 -42 44 -45 -48 -49 51 -53 55 57 -58 -59 -61 65 -66 -68 -69 -70 71 -72 73 -75 77 81 -84 -85 86 -89 92 93 97 -98 100 -101 -103 104 106 -110 115 -116 -119 120 -123 -124 125 -126 127 130 131 132 -133 -134 137 -144 146 147 -149 150 0
x -2 -8 -10 11 12 -14 16 -17 -18 19 -21 22 -24 -25 26 -28 -30 -31 -32 -36 37 -40 -42 43 -44 47 48 49 -55 -60 -61 -63 -64 -66 -69 71 72 -77 79 81 -83 84 -86 89 -90 92 -100 -101 -102 104 -105 107 108 -109 -112 114 117 118 119 -120 125 127 128 131 133 134 -135 -137 138 -139 140 144 145 -146 149 -150 0
x 1 3 5 7 10 13 16 17 19 20 -22 23 -25 -27 -28 29 30 -31 -34 35 -38 39 -40 41 42 -43 -44 45 47 -48 -49 -53 -54 -55 -56 -58 -64 -66 67 70 -72 -73 75 -76 -77 80 -82 -83 -86 -87 -89 -90 92 96 -103 -104 -109 -111 -115 -118 -119 -122 124 -128 -130 -131 -132 -134 -136 -137 139 -140 141 142 -143 -145 148 149 0
x -4 -5 -6 7 -9 12 15 -16 17 18 19 20 -21 -22 -23 -25 28 29 30 33 35 -36 39 -41 45 -46 -48 -50 -53 -56 -57 -58 -59 60 61 62 -65 68 69 -70 71 -73 74 75 76 77 -78 79 -84 -85 -86 -87 88 -90 -91 92 -93 94 -96 -98 102 -103 -105 -106 108 110 -111 -112 117 -118 -119 -121 122 123 126 -129 130 -132 -133 139 -140 141 -147 148 150 0
x 1 -2 -8 -12 -13 16 17 -20 -23 24 -26 27 -29 -30 -31 33 34 36 -38 40 -49 50 51 -57 -59 60 61 -62 63 -65 68 -69 75 -79 -80 -85 86 87 95 97 -99 -100 -107 109 110 111 -114 -117 -118 -121 122 124 -125 128 129 130 131 -134 135 -137 138 -140 -142 144 -145 0
x -2 -4 -10 -11 -13 -16 20 21 -25 26 -32 -35 36 -37 38 39 -43 -44 47 -51 52 -53 -54 -55 57 59 -60 65 67 -69 70 73 -74 75 -77 -78 -79 -85 -87 -93 -95 97 102 103 105 106 -108 109 -110 -113 115 -116 118 -121 122 123 125 -126 127 130 -131 -132 -133 136 -140 -147 149 0
x 1 -2 -3 -4 -6 -8 9 -13 -14 16 19 25 26 -29 -30 -32 34 36 37 -38 39 -40 42 43 -45 -46 47 -48 -49 55 60 63 -64 66 67 68 -69 -71 -73 -74 -76 78 -79 80 82 -83 84 86 87 -89 92 93 -95 97 98 -99 105 106 111 114 -118 121 -130 -131 -132 133 135 -136 -139 141 -145 -146 -147 148 -149 0
x 1 2 -5 10 -12 -13 -14 15 16 17 20 21 -23 -25 -27 29 -31 34 36 37 38 -41 42 43 45 46 -47 48 -49 -53 -56 60 61 -63 67 -68 70 -71 72 75 78 -79 -80 -83 -84 87 -88 89 92 93 -94 98 100 102 -108 -109 -112 -113 114 116 -118 -120 121 122 -124 126 -131 134 -135 136 -138 140 0
x -2 -3 -4 6 7 -8 -9 11 12 14 17 -20 22 24 -25 26 27 28 -31 32 35 37 43 -54 -55 -57 -58 -59 60 63 -64 -65 71 -72 73 75 -77 -78 79 -80 81 84 85 86 87 89 -90 -94 95 -96 -99 -104 -106 107 110 -111 112 -113 -115 116 -119 -120 -123 124 -126 127 128 -133 138 -140 142 144 148 -150 0
x -1 -5 6 7 -12 16 17 -19 22 23 -24 -25 -27 -28 29 30 32 35 39 40 41 -53 54 55 -56 -57 58 59 60 61 64 65 -66 68 -69 -71 -77 -78 -81 82 84 86 -89 -91 -92 -96 -98 99 103 -105 106 -108 109 -111 -114 -117 -120 122 124 -125 126 127 -133 -134 -138 139 -140 142 143 -144 -146 -148 150 0
x 1 -2 -5 6 8 12 -16 18 -19 -25 -30 -31 -32 -35 36 40 -41 -42 47 48 50 -51 56 -58 -63 65 -66 67 68 -70 -71 -73 -78 80 -82 86 -89 92 -93 97 101 102 -103 105 -107 112 113 114 116 -119 120 -121 123 -124 -125 126 131 132 133 -137 -138 140 -148 -149 -150 0
x -1 2 3 4 5 -6 10 -13 15 20 -24 -25 27 -28 29 30 -31 32 -35 36 -39 40 41 42 -43 44 -45 48 49 51 -52 53 -55 56 57 58 -61 62 63 -64 -67 -70 74 77 -78 -79 81 83 -85 -89 90 -91 96 -98 99 -100 101 102 -103 105 107 -111 112 115 116 119 120 121 123 -124 -125 -126 -127 128 -130 131 -134 -136 -139 -140 142 143 144 -145 -146 147 149 150 0
x -3 5 -6 -7 -9 10 11 12 -13 -14 -15 -17 21 -22 23 -24 -25 27 28 29 30 31 32 -33 -34 -36 39 -40 -41 -42 -45 46 48 51 -56 -58 -59 60 -61 62 -63 65 66 -67 69 -70 71 -74 75 -79 -83 -87 89 91 -95 96 -97 -100 -103 -104 -105 -108 110 -111 -112 118 -120 128 131 -132 133 -134 140 142 -143 -145 147 -150 0
x 4 -6 -10 -12 14 -15 18 -19 -20 -21 -23 24 29 30 -35 -37 38 -41 43 -45 48 -50 -55 -56 61 -63 -64 66 -67 68 -71 -72 74 75 76 80 -81 84 85 86 -87 88 -89 -90 93 -96 -101 -102 103 104 105 -107 110 -117 -118 -119 123 -124 126 -127 -128 -129 -130 131 -133 -134 135 -136 138 -140 142 144 -148 -149 0
x 2 -3 -5 8 -10 -11 13 -14 -16 25 -26 -27 -28 31 35 -36 -37 -38 -41 42 -45 -46 -47 -48 -54 -57 -58 59 -62 -63 64 65 67 70 72 -77 -78 79 -81 82 83 -85 -87 88 -89 90 -93 -97 -99 -100 -101 -104 105 -107 -110 112 113 -114 115 118 -120 -121 125 -127 -128 132 -135 -140 -143 146 147 148 150 0
x 4 -6 8 -10 11 12 -16 19 20 -22 -23 25 -28 -29 -30 -31 32 -33 -35 40 43 45 -51 53 -55 -57 58 59 -65 67 69 -72 73 -77 81 82 83 -86 87 -88 -91 -94 95 -98 -100 -101 -103 104 -105 -108 -110 112 -115 118 -119 120 121 122 -123 124 -126 127 -131 -132 -135 -137 -139 -142 143 -144 -145 146 0
x 2 -3 -5 -6 -9 -11 12 -14 15 17 19 20 25 26 28 -29 32 -33 34 -35 36 -38 39 -40 41 -43 -45 51 52 56 57 58 -59 -61 -63 -64 65 67 -71 73 74 76 77 -78 79 82 86 -87 92 -95 -99 104 -105 -107 108 110 -111 -113 114 -115 -117 -120 -121 122 -123 125 126 -127 -128 -129 131 -134 -138 -141 146 149 0
x 2 -3 -4 8 -14 -15 -18 -20 21 -22 -23 -24 -26 28 31 32 34 -36 38 -39 -40 -41 43 45 46 50 51 -53 55 -56 -57 59 61 -62 -64 -66 -68 -70 72 73 74 75 -76 78 -79 -80 83 84 -86 87 -89 90 94 98 -99 101 103 -106 109 -111 -114 118 -119 120 -121 122 124 128 130 131 -136 -138 -141 -143 -145 147 148 149 0
x -2 5 -9 10 -11 -13 -14 15 17 -18 -19 -20 23 -28 -32 -37 -39 40 41 44 -45 -46 47 48 49 -50 52 -53 57 -58 -60 61 -62 -64 -66 -67 68 -69 -74 -75 77 -78 79 -80 -81 -82 -86 -88 89 -95 98 -100 -103 106 -109 -111 -114 115 -117 -118 119 120 -121 -124 -126 -131 -132 -133 -134 -136 -137 -143 -144 -146 150 0
x -1 4 -5 -6 7 8 9 10 11 -12 -13 14 18 19 20 -21 -22 -26 -30 -34 36 -37 -39 40 -43 47 -48 49 50 -51 -55 56 57 -58 59 -62 -69 -73 -74 75 -77 78 83 85 -87 90 -91 -92 -93 94 95 -96 100 -102 104 -105 106 -107 -108 109 112 113 -114 115 117 -118 -121 -122 -123 -129 -130 131 -135 137 138 -139 141 142 -144 -145 -147 -149 -150 0
x 2 4 -5 6 7 8 9 -10 -12 13 -16 18 20 -21 23 -24 -25 26 27 -29 -30 31 34 -36 37 38 40 41 44 -47 -48 51 -53 -54 55 -56 59 61 62 -64 65 -68 70 73 -74 -78 79 -82 -83 84 85 86 87 91 -92 -94 -95 97 99 -101 103 -107 109 -110 111 -112 -113 116 -117 -118 119 -120 -124 -125 -127 134 136 -138 -140 143 144 145 -147 148 -150 0
x 1 2 -3 4 -6 -7 -8 9 10 -12 14 19 20 -22 24 26 27 28 29 32 37 -39 40 -43 44 56 57 -62 -63 67 69 -70 -72 -76 77 78 -88 -90 -91 -96 -99 -100 -101 103 104 -105 108 109 -111 -112 114 -115 -116 -118 -122 -124 126 -131 134 136 -139 -140 -141 -145 -147 148 149 -150 0
x -3 -4 -7 -9 -12 14 -15 -16 17 18 -19 20 -23 -24 -25 -26 27 -34 -36 -37 38 -39 -41 45 -47 51 52 -57 -58 -59 -63 64 -65 67 -69 70 72 -73 -74 -75 76 -79 81 -82 83 -84 86 -87 -89 -90 91 -95 -97 100 102 103 105 -106 -108 -109 -113 115 116 118 -119 120 -121 123 126 129 -131 -132 133 134 139 -141 -142 0
x 1 2 5 6 7 -8 9 -10 -11 -12 13 -15 -16 20 -21 22 23 26 27 -29 34 -36 -37 40 -44 45 49 -50 51 -52 -53 -54 55 -59 -60 65 66 70 73 74 75 76 -78 79 -80 -81 -82 85 87 -89 -90 -92 -93 94 96 97 98 -100 -101 102 -103 -105 109 -112 -116 -118 -120 123 -124 -127 -128 132 -135 141 -142 144 146 147 0
x -5 -6 -7 8 10 12 -13 14 16 17 20 21 -22 -23 -24 29 -32 33 34 -35 36 -38 39 -42 -43 -46 47 48 -49 52 57 -59 63 69 -70 73 -78 80 81 -84 86 -87 88 89 -90 -91 92 -94 -97 99 104 105 -106 107 108 110 -111 112 -113 114 -116 -119 -121 -122 126 127 128 129 -130 134 135 -138 -139 141 -142 -143 144 146 -148 149 -150 0
x -5 -6 -8 -12 13 16 -17 -19 -20 21 -26 27 -28 29 -30 31 32 34 -35 39 40 -43 -44 45 -48 -49 52 -53 54 -56 58 -65 68 -69 -71 -72 73 74 -77 78 -79 80 -83 -85 -89 -91 92 95 99 100 102 104 105 -106 -109 -110 111 -112 113 117 118 119 -120 -123 -125 -127 128 -129 132 -133 -135 -136 -137 -139 141 144 -146 148 150 0
x -2 -3 -5 8 -11 14 16 18 19 21 -23 -24 25 28 -29 -31 33 35 36 37 -38 40 -41 42 -43 47 49 50 -51 53 58 -61 -62 -63 -65 66 -70 -75 78 -84 86 87 -88 -92 93 95 -99 101 -105 106 -107 -110 112 -113 114 116 -117 118 -119 122 125 126 127 -128 129 130 131 133 135 -137 -138 139 -141 -143 -145 0
x 2 -3 4 -5 7 8 10 14 -15 16 -18 -20 23 -27 -29 31 33 -34 35 37 38 -39 -40 -41 43 44 45 -46 47 48 50 52 53 56 -57 58 -60 61 -65 -68 71 73 74 76 -77 78 79 80 -81 -85 -86 -87 91 94 -95 96 97 99 101 102 105 109 -110 113 -117 118 119 120 -122 -123 -127 128 130 -132 133 -135 -136 -138 144 145 147 -149 0
x 2 -3 4 10 12 -15 -16 20 21 23 -24 25 -26 27 -29 30 36 38 -39 -44 -45 -48 51 -52 -53 55 -56 57 -59 61 -64 -65 67 69 71 72 -73 -78 -80 -81 -82 88 -90 92 97 99 -100 101 -106 110 -111 112 -113 -114 115 -116 -117 -119 121 122 123 -124 125 127 -128 -130 132 -133 134 135 -136 138 -142 -145 -146 -147 148 149 -150 0
x 1 -5 8 10 -12 -14 -15 -16 -18 19 23 24 -26 27 28 31 33 34 -41 -42 -44 -45 -46 47 -48 50 -52 53 -54 -55 59 -61 -62 64 -65 -67 68 71 76 -77 78 79 80 83 -84 -85 -87 -90 91 -93 96 -100 -101 102 105 -107 108 109 110 114 -115 -116 121 122 -124 -125 -126 127 -129 -131 -132 135 136 -138 141 143 146 147 148 -150 0
x 3 4 -6 -7 8 -9 11 -16 17 18 19 20 24 -27 -28 30 33 36 37 38 42 43 -44 -45 -46 -47 49 -50 -51 -52 -53 55 -56 -57 60 61 -63 64 66 68 70 73 -74 75 -77 80 -82 -87 89 91 -93 98 -100 -101 102 103 105 108 -110 112 -115 -117 120 -121 -122 123 -124 -127 129 130 -135 136 -138 -139 -142 145 -148 150 0
x 1 2 -4 5 -9 10 14 -16 -17 19 21 23 24 27 -29 30 -33 34 35 36 -37 -38 39 -40 -42 43 44 45 -49 52 53 -55 56 59 60 63 65 66 68 69 -71 74 -76 -78 -79 80 81 -82 -83 84 85 -86 87 89 -90 -91 93 95 96 -97 -99 -100 -103 104 106 -107 -108 -109 110 -111 112 -114 115 -120 121 -126 127 -129 130 -132 -133 -134 -135 -138 -139 143 -144 -150 0
x 2 -4 -5 -6 8 -9 10 11 13 15 -20 21 -22 24 25 26 27 -29 32 -33 -34 37 38 -39 40 -42 43 44 48 -50 -51 52 53 57 -58 59 -62 -63 65 68 69 70 72 -75 78 -83 85 86 -87 -88 -91 -92 -93 97 -99 102 -106 110 111 -112 -114 -116 119 121 125 -127 -128 -129 -130 -131 -132 -133 134 -137 -138 142 143 -145 -146 148 0
x 2 3 -4 -6 8 -12 13 -15 16 -18 -20 -21 -23 24 -25 28 29 -36 37 39 40 -41 -44 -45 -49 -52 -53 58 59 -60 62 -66 67 -68 69 -70 -72 73 74 -75 -81 83 -84 -86 -91 -94 95 -101 -102 103 104 106 107 108 109 110 -111 112 123 -124 126 128 130 133 -134 -135 -141 -143 -144 -146 -147 149 0
x -1 -2 3 4 -5 -6 7 -10 12 -14 -15 -17 21 23 31 32 40 43 47 -51 54 56 -57 63 -64 65 -66 71 72 -73 81 82 -84 -88 91 -92 -93 -94 -95 97 98 99 -100 110 -112 -114 -116 -117 120 -123 -125 -128 133 134 -135 136 -137 -139 140 -141 142 143 -150 0
x 1 -3 4 6 10 -11 -12 -14 15 16 -17 18 -21 22 24 26 27 -28 -29 -30 -32 -33 35 -36 38 40 -41 -43 44 45 46 -52 -54 -60 -61 62 66 -68 69 71 73 -76 -77 80 81 -83 84 -86 90 -91 95 -98 -99 -100 -101 -102 103 -107 -108 110 114 -116 117 119 120 122 -124 -126 -128 -129 -130 -131 132 -133 134 -135 -136 138 140 -141 142 146 147 148 0
x -1 -2 3 -5 6 9 11 -12 16 17 18 -20 21 -22 23 25 26 27 28 -29 -38 40 41 -43 44 -45 -47 -49 52 54 -59 61 -63 -64 -65 66 67 -71 76 -78 -80 -81 -90 91 93 -96 97 -98 99 100 104 -107 111 -112 113 117 120 -121 123 126 -127 129 130 132 134 -137 -142 145 -146 147 -148 -149 0
x 1 -2 4 -6 7 -8 -11 12 -13 -15 -19 -20 21 -25 -27 28 -31 -34 35 37 38 40 43 46 47 -48 -49 51 52 -53 57 58 59 -60 -64 -68 -69 70 -72 -73 -74 -78 -79 -83 85 -88 -89 90 93 -96 97 100 101 103 107 -108 -110 111 117 -120 -126 -128 -129 -131 133 -135 -136 -138 -140 -146 148 0
x 1 -3 7 -8 -11 13 16 -20 23 25 -28 -31 -32 -35 -37 -38 39 46 -50 51 52 -54 55 60 -61 -62 -63 65 66 -68 69 70 72 -75 -77 78 81 83 84 86 -90 92 93 96 97 98 100 101 -103 -104 -105 -108 109 111 112 113 117 118 119 120 122 124 127 -128 133 138 143 -145 146 -149 150 0
x 1 -4 -8 10 -11 -12 14 17 18 19 -22 23 24 25 26 28 -29 -31 -34 35 37 39 41 44 45 -47 48 -49 51 -53 -56 57 -58 61 -62 -66 -68 -70 73 79 -80 84 -86 90 -91 -93 -94 96 -98 102 -103 -104 -106 -111 -115 116 -117 -119 120 121 -131 132 -134 140 142 145 146 147 0
x 2 4 -7 8 12 -14 -16 -19 -23 24 26 27 28 -29 -30 -38 -39 44 -45 -47 48 -51 52 -54 56 57 -58 59 -62 -63 67 69 -70 73 -75 78 79 -80 81 -84 -85 -87 89 91 92 -93 -94 97 100 101 -102 104 105 107 -108 -112 -114 115 117 120 -121 -123 -125 -126 133 -136 137 142 -143 147 -149 150 0
x -1 2 -6 -14 18 19 -21 23 -24 27 32 33 -34 38 -39 -41 -42 44 -45 -49 53 54 55 56 -57 -62 -65 71 -73 74 78 79 82 85 -87 -91 -93 94 -97 98 99 100 102 -103 -107 110 -111 114 -119 121 123 124 -132 -133 135 139 -142 144 145 147 -148 0
x 2 3 -5 7 11 -12 13 -15 -16 17 -18 21 22 28 -30 -32 33 36 37 -40 -43 -44 -46 50 -53 54 57 -59 -60 61 -62 64 -66 67 -68 -70 72 75 77 -79 -80 -81 -87 -88 -89 -90 92 -94 95 98 -99 -104 105 -106 -107 108 109 -110 112 -113 -114 117 -118 -120 121 -125 -126 -127 -131 -132 -133 -134 135 136 143 -144 145 147 148 -149 -150 0
x 1 -2 -6 10 -14 15 -16 17 -20 26 28 29 32 -33 -34 35 36 38 -39 41 -42 44 -45 -48 -49 -52 56 58 60 -61 -63 -64 -65 -66 67 -68 -69 -70 -72 73 -76 77 78 -80 -82 83 -85 -86 88 90 94 95 -96 -97 -98 -99 -100 102 103 104 105 -106 -107 108 -112 -117 -119 -120 -122 -125 -127 -128 129 131 137 -141 -144 -145 147 -150 0
x -8 -11 12 14 15 20 -24 25 -26 -30 35 -36 -37 38 -41 42 43 46 49 52 53 -54 -60 64 -66 -67 -68 69 -70 -74 76 -80 81 -83 -85 88 -90 91 -93 94 95 98 99 102 104 105 -106 107 -109 -112 117 124 125 126 -127 129 -131 133 137 -138 -139 140 141 142 143 -144 -145 -147 150 0
x 1 -3 4 8 9 -12 -15 16 17 -18 -21 22 25 26 27 29 -31 -32 33 -34 37 -38 -39 -40 44 -46 47 50 -51 -53 -58 -60 -61 -64 65 68 -69 71 -75 -76 77 -78 79 80 -82 85 -87 89 90 91 -93 95 -97 98 -102 -103 105 -106 107 -109 -110 -111 113 115 -116 -117 119 -123 -124 -126 -128 -129 131 -132 -133 -136 -138 141 142 -143 -144 146 -147 148 0
x 1 5 6 -8 9 -11 12 -18 -19 -25 -26 27 -32 35 37 -38 39 42 -43 -46 48 49 -51 52 57 59 -62 63 65 66 -68 -72 73 74 75 77 -78 -79 -80 81 82 -84 -86 89 90 -91 -93 95 98 99 100 -101 102 104 -105 -107 108 110 111 113 123 -124 128 -129 -130 131 -134 -136 -137 -138 140 -141 -142 -143 -145 146 -148 0
x 3 -4 9 -10 12 -13 15 16 17 19 -23 -25 -30 34 36 37 43 46 -47 50 -52 -54 57 58 -61 -62 66 -69 71 72 -76 78 -80 82 84 85 86 89 -92 -94 -96 99 -104 107 108 111 113 115 -116 118 119 120 124 -125 126 128 -129 130 -133 -135 137 -138 -139 140 142 143 -144 145 -146 147 148 -149 0
x -5 7 9 10 12 13 14 -15 -17 -18 -19 -20 21 -22 23 24 25 -26 -28 -29 30 32 33 34 -36 38 41 43 -48 51 -54 -55 56 60 63 -66 68 69 -70 73 -74 75 76 -78 -83 86 -91 -92 93 97 98 99 -100 -101 -103 109 -113 117 -118 -119 -120 -123 -128 -130 132 133 -135 -137 -139 141 145 -146 -149 -150 0
x 1 -3 6 -8 10 -12 14 15 17 18 -19 -20 -22 -24 27 28 -29 -31 32 -34 36 -40 42 -43 44 47 -51 53 54 -55 56 -58 -59 -60 61 -65 69 -70 -72 -73 76 -77 -78 80 -82 -83 84 86 90 -91 92 -93 -95 109 -111 -115 -116 -120 123 124 125 -129 -134 -135 136 140 -144 -146 149 0
x -2 -4 -5 8 10 11 -12 -13 -14 20 21 -23 25 -26 -27 28 -31 33 -34 35 36 -38 -39 42 -44 45 46 47 -50 -51 -52 -53 54 -59 61 67 69 -70 -71 80 -88 90 -91 -93 -95 -98 -103 -104 -105 -108 109 -110 112 119 122 -123 126 127 129 131 -133 135 136 -137 -139 -140 -141 145 -147 -148 150 0
x -1 4 5 -7 -9 -11 15 16 -17 18 21 -22 -24 26 -30 36 38 -43 49 -50 52 -55 -56 -57 58 60 61 -65 -66 67 68 -70 -73 80 81 -82 -84 -87 90 -92 -94 101 102 -103 104 -107 108 110 -111 -117 -119 -121 -122 -124 126 127 128 129 131 132 133 -134 -135 136 -137 -141 -144 -145 146 -147 -148 150 0
x 3 -4 5 7 11 -14 15 -16 -20 21 -25 -26 27 -28 30 -31 -32 -34 35 -38 -39 41 -44 45 54 -55 58 -60 62 63 -65 66 68 69 70 71 -72 73 -75 76 -77 78 80 84 86 87 89 -90 -91 -95 -96 98 -99 101 102 -103 104 -105 108 -110 112 114 -115 118 -119 -122 124 125 -126 127 -128 130 132 -135 -136 137 -138 -140 141 -142 -143 144 145 146 147 0
x 1 2 -3 -8 -9 -11 -12 -13 15 -18 -19 20 -24 -25 -28 29 31 -32 34 -36 40 -42 43 45 47 -48 51 52 -53 55 -56 -57 -60 -62 64 68 69 -72 -73 74 -76 81 -83 -84 -85 86 -87 -88 91 -92 -96 97 101 103 -104 -108 -110 -111 -116 -118 -119 120 -121 122 124 128 -129 130 132 -135 136 -137 140 141 142 -143 146 -147 148 149 150 0
x 4 -7 -9 10 -12 14 19 21 22 -23 24 26 -28 -30 -31 -32 33 -35 -36 -40 -41 -42 45 -46 -48 49 50 51 52 -55 -60 62 63 -64 66 68 -70 73 75 -79 -80 83 -88 -90 92 -93 -94 96 -97 -98 99 -102 -103 106 -107 108 -111 114 115 -117 118 119 121 122 125 -129 132 133 -137 -138 -140 -141 -143 -145 -148 -150 0
x 1 -3 4 5 6 -8 -9 -11 12 -13 -14 -17 -19 20 22 -23 25 -26 27 -28 31 35 37 38 -41 43 -44 46 -48 51 56 58 -59 -63 66 -68 -69 -70 -73 75 -77 82 -87 -88 -89 -90 91 92 93 -96 98 101 103 -106 109 -112 115 -117 -118 122 124 -125 126 -128 -134 135 136 139 -141 142 144 146 0
x 1 -2 5 6 9 -10 -11 16 -17 -19 20 22 -23 -24 25 -27 29 32 33 38 -39 -41 -43 44 48 50 -51 52 -53 55 -58 59 -60 -61 64 -65 -66 -70 -72 -74 -75 -76 -80 82 -87 90 92 94 -99 100 101 102 -103 104 108 -111 113 114 115 -117 121 124 -127 -129 131 -132 135 -136 -137 140 141 -142 -144 -145 147 149 0
x -4 -5 8 -9 -12 13 14 -16 18 -21 22 -25 -27 28 -29 -31 32 -33 34 -35 -36 37 40 41 -43 45 46 47 49 50 53 54 55 57 58 60 -63 -64 66 -68 70 -71 72 -74 -78 -79 82 85 -86 88 91 94 -98 -100 -101 104 -105 108 110 -112 114 -116 118 -121 122 125 -126 127 128 -132 139 -141 -142 145 -148 -149 150 0
x -1 -3 -5 7 -9 -13 18 -22 23 25 -26 27 30 -31 -32 -35 36 37 -40 -41 43 -44 -45 46 47 49 50 51 -54 -55 -56 -59 -61 62 -63 66 -68 71 73 -76 77 79 -82 -84 85 -87 88 -90 92 -94 -95 -100 104 -106 107 -112 -115 117 119 -121 122 130 131 -133 134 -136 137 140 -142 -144 147 148 -149 150 0
